data/mip_solutions/furman_sahinidis/reduced_transportation/7sp4_gurobi.sol
Elapsed time: 0.0991430282593
Nodes explored: 0
Upper bound: 8.0
Lower bound: 8.0
y[0,0]=1
y[1,0]=1
y[2,0]=1
y[3,0]=1
y[4,1]=1
y[5,0]=1
y[5,1]=1
y[6,0]=1
q[0,1,0,1]=373.667686
q[0,2,0,2]=219.807314
q[0,3,0,3]=483.571343
q[0,4,0,4]=131.885971
q[0,5,0,5]=439.606715
q[0,6,0,6]=383.899902
q[0,6,0,7]=275.52204
q[0,6,1,6]=1.70530256582e-13
q[1,2,0,3]=161.195734
q[1,3,0,3]=290.15
q[1,3,0,4]=3.41060513165e-13
q[2,3,0,3]=145.077514
q[2,4,0,6]=39.567458
q[2,5,0,5]=131.88757
q[2,6,0,6]=243.994972
q[3,4,0,4]=281.372294
q[3,4,0,6]=246.17159
q[3,5,0,5]=805.99194
q[3,5,0,6]=161.13492
q[4,5,1,6]=351.6909275
q[4,6,1,6]=703.3881855
q[5,6,0,6]=1707.775648
q[5,6,1,6]=856.681679
q[6,0,0,0]=730.088775
q[6,0,0,1]=797.201804
q[6,0,0,2]=468.948196
q[6,0,0,3]=435.252654
